Minimize
color_reps: x0,0 + x1,1 + x2,2 + x3,3 + x4,4 + x5,5 + x6,6 + x7,7 + x8,8 + x9,9 + x10,10 + x11,11 + x12,12 + x13,13 + x14,14 + x15,15 + x16,16 + x17,17 + x18,18 + x19,19
Subject To
rep0: x0,0 + x4,0 >= 1
rep1: x1,1 + x16,1 + x17,1 >= 1
rep2: x2,2 + x18,2 >= 1
rep3: x3,3 + x9,3 + x16,3 >= 1
rep4: x4,4 + x0,4 + x8,4 + x12,4 >= 1
rep5: x5,5 + x8,5 + x15,5 >= 1
rep6: x6,6 + x9,6 >= 1
rep7: x7,7 + x14,7 + x16,7 >= 1
rep8: x8,8 + x4,8 + x5,8 >= 1
rep9: x9,9 + x3,9 + x6,9 + x10,9 >= 1
rep10: x10,10 + x9,10 + x13,10 + x18,10 >= 1
rep11: x11,11 >= 1
rep12: x12,12 + x4,12 + x13,12 + x15,12 + x16,12 >= 1
rep13: x13,13 + x10,13 + x12,13 + x19,13 >= 1
rep14: x14,14 + x7,14 + x15,14 + x16,14 >= 1
rep15: x15,15 + x5,15 + x12,15 + x14,15 + x17,15 + x18,15 >= 1
rep16: x16,16 + x1,16 + x3,16 + x7,16 + x12,16 + x14,16 + x17,16 + x19,16 >= 1
rep17: x17,17 + x1,17 + x15,17 + x16,17 >= 1
rep18: x18,18 + x2,18 + x10,18 + x15,18 >= 1
rep19: x19,19 + x13,19 + x16,19 >= 1
uqrep3_16,9: x3,16 + x3,9 - x3,3 <= 0
uqrep4_0,8: x4,0 + x4,8 - x4,4 <= 0
uqrep4_0,12: x4,0 + x4,12 - x4,4 <= 0
uqrep4_8,12: x4,8 + x4,12 - x4,4 <= 0
uqrep5_8,15: x5,8 + x5,15 - x5,5 <= 0
uqrep8_4,5: x8,4 + x8,5 - x8,8 <= 0
uqrep9_10,3: x9,10 + x9,3 - x9,9 <= 0
uqrep9_10,6: x9,10 + x9,6 - x9,9 <= 0
uqrep9_3,6: x9,3 + x9,6 - x9,9 <= 0
uqrep10_9,13: x10,9 + x10,13 - x10,10 <= 0
uqrep10_9,18: x10,9 + x10,18 - x10,10 <= 0
uqrep10_18,13: x10,18 + x10,13 - x10,10 <= 0
uqrep12_16,4: x12,16 + x12,4 - x12,12 <= 0
uqrep12_16,13: x12,16 + x12,13 - x12,12 <= 0
uqrep12_16,15: x12,16 + x12,15 - x12,12 <= 0
uqrep12_4,13: x12,4 + x12,13 - x12,12 <= 0
uqrep12_4,15: x12,4 + x12,15 - x12,12 <= 0
uqrep12_13,15: x12,13 + x12,15 - x12,12 <= 0
uqrep13_10,12: x13,10 + x13,12 - x13,13 <= 0
uqrep13_10,19: x13,10 + x13,19 - x13,13 <= 0
uqrep13_19,12: x13,19 + x13,12 - x13,13 <= 0
uqrep14_16,15: x14,16 + x14,15 - x14,14 <= 0
uqrep14_7,15: x14,7 + x14,15 - x14,14 <= 0
uqrep15_17,5: x15,17 + x15,5 - x15,15 <= 0
uqrep15_17,12: x15,17 + x15,12 - x15,15 <= 0
uqrep15_17,14: x15,17 + x15,14 - x15,15 <= 0
uqrep15_17,18: x15,17 + x15,18 - x15,15 <= 0
uqrep15_18,5: x15,18 + x15,5 - x15,15 <= 0
uqrep15_18,12: x15,18 + x15,12 - x15,15 <= 0
uqrep15_18,14: x15,18 + x15,14 - x15,15 <= 0
uqrep15_12,5: x15,12 + x15,5 - x15,15 <= 0
uqrep15_12,14: x15,12 + x15,14 - x15,15 <= 0
uqrep15_5,14: x15,5 + x15,14 - x15,15 <= 0
uqrep16_1,3: x16,1 + x16,3 - x16,16 <= 0
uqrep16_1,7: x16,1 + x16,7 - x16,16 <= 0
uqrep16_1,12: x16,1 + x16,12 - x16,16 <= 0
uqrep16_1,14: x16,1 + x16,14 - x16,16 <= 0
uqrep16_1,19: x16,1 + x16,19 - x16,16 <= 0
uqrep16_3,7: x16,3 + x16,7 - x16,16 <= 0
uqrep16_3,12: x16,3 + x16,12 - x16,16 <= 0
uqrep16_3,14: x16,3 + x16,14 - x16,16 <= 0
uqrep16_3,17: x16,3 + x16,17 - x16,16 <= 0
uqrep16_3,19: x16,3 + x16,19 - x16,16 <= 0
uqrep16_7,12: x16,7 + x16,12 - x16,16 <= 0
uqrep16_7,17: x16,7 + x16,17 - x16,16 <= 0
uqrep16_7,19: x16,7 + x16,19 - x16,16 <= 0
uqrep16_12,14: x16,12 + x16,14 - x16,16 <= 0
uqrep16_12,17: x16,12 + x16,17 - x16,16 <= 0
uqrep16_12,19: x16,12 + x16,19 - x16,16 <= 0
uqrep16_14,17: x16,14 + x16,17 - x16,16 <= 0
uqrep16_14,19: x16,14 + x16,19 - x16,16 <= 0
uqrep16_17,19: x16,17 + x16,19 - x16,16 <= 0
uqrep17_16,15: x17,16 + x17,15 - x17,17 <= 0
uqrep17_1,15: x17,1 + x17,15 - x17,17 <= 0
uqrep18_2,10: x18,2 + x18,10 - x18,18 <= 0
uqrep18_2,15: x18,2 + x18,15 - x18,18 <= 0
uqrep18_10,15: x18,10 + x18,15 - x18,18 <= 0
uqrep19_16,13: x19,16 + x19,13 - x19,19 <= 0
Bounds
0 <= x0,0 <= 1
0 <= x0,4 <= 1
0 <= x1,1 <= 1
0 <= x1,16 <= 1
0 <= x1,17 <= 1
0 <= x2,2 <= 1
0 <= x2,18 <= 1
0 <= x3,3 <= 1
0 <= x3,9 <= 1
0 <= x3,16 <= 1
0 <= x4,0 <= 1
0 <= x4,4 <= 1
0 <= x4,8 <= 1
0 <= x4,12 <= 1
0 <= x5,5 <= 1
0 <= x5,8 <= 1
0 <= x5,15 <= 1
0 <= x6,6 <= 1
0 <= x6,9 <= 1
0 <= x7,7 <= 1
0 <= x7,14 <= 1
0 <= x7,16 <= 1
0 <= x8,4 <= 1
0 <= x8,5 <= 1
0 <= x8,8 <= 1
0 <= x9,3 <= 1
0 <= x9,6 <= 1
0 <= x9,9 <= 1
0 <= x9,10 <= 1
0 <= x10,9 <= 1
0 <= x10,10 <= 1
0 <= x10,13 <= 1
0 <= x10,18 <= 1
0 <= x11,11 <= 1
0 <= x12,4 <= 1
0 <= x12,12 <= 1
0 <= x12,13 <= 1
0 <= x12,15 <= 1
0 <= x12,16 <= 1
0 <= x13,10 <= 1
0 <= x13,12 <= 1
0 <= x13,13 <= 1
0 <= x13,19 <= 1
0 <= x14,7 <= 1
0 <= x14,14 <= 1
0 <= x14,15 <= 1
0 <= x14,16 <= 1
0 <= x15,5 <= 1
0 <= x15,12 <= 1
0 <= x15,14 <= 1
0 <= x15,15 <= 1
0 <= x15,17 <= 1
0 <= x15,18 <= 1
0 <= x16,1 <= 1
0 <= x16,3 <= 1
0 <= x16,7 <= 1
0 <= x16,12 <= 1
0 <= x16,14 <= 1
0 <= x16,16 <= 1
0 <= x16,17 <= 1
0 <= x16,19 <= 1
0 <= x17,1 <= 1
0 <= x17,15 <= 1
0 <= x17,16 <= 1
0 <= x17,17 <= 1
0 <= x18,2 <= 1
0 <= x18,10 <= 1
0 <= x18,15 <= 1
0 <= x18,18 <= 1
0 <= x19,13 <= 1
0 <= x19,16 <= 1
0 <= x19,19 <= 1
End